c description: Tseitin formula on , with odd charge
c generator: CNFgen (0.9.0)
c copyright: (C) 2012-2020 Massimo Lauria <massimo.lauria@uniroma1.it>
c url: https://massimolauria.net/cnfgen
c
p cnf 20 112
1 2 0
-1 -2 0
3 4 5 6 7 -8 0
3 4 5 6 -7 8 0
3 4 5 -6 7 8 0
3 4 5 -6 -7 -8 0
3 4 -5 6 7 8 0
3 4 -5 6 -7 -8 0
3 4 -5 -6 7 -8 0
3 4 -5 -6 -7 8 0
3 -4 5 6 7 8 0
3 -4 5 6 -7 -8 0
3 -4 5 -6 7 -8 0
3 -4 5 -6 -7 8 0
3 -4 -5 6 7 -8 0
3 -4 -5 6 -7 8 0
3 -4 -5 -6 7 8 0
3 -4 -5 -6 -7 -8 0
-3 4 5 6 7 8 0
-3 4 5 6 -7 -8 0
-3 4 5 -6 7 -8 0
-3 4 5 -6 -7 8 0
-3 4 -5 6 7 -8 0
-3 4 -5 6 -7 8 0
-3 4 -5 -6 7 8 0
-3 4 -5 -6 -7 -8 0
-3 -4 5 6 7 -8 0
-3 -4 5 6 -7 8 0
-3 -4 5 -6 7 8 0
-3 -4 5 -6 -7 -8 0
-3 -4 -5 6 7 8 0
-3 -4 -5 6 -7 -8 0
-3 -4 -5 -6 7 -8 0
-3 -4 -5 -6 -7 8 0
3 9 10 -11 0
3 9 -10 11 0
3 -9 10 11 0
3 -9 -10 -11 0
-3 9 10 11 0
-3 9 -10 -11 0
-3 -9 10 -11 0
-3 -9 -10 11 0
9 12 13 14 -15 0
9 12 13 -14 15 0
9 12 -13 14 15 0
9 12 -13 -14 -15 0
9 -12 13 14 15 0
9 -12 13 -14 -15 0
9 -12 -13 14 -15 0
9 -12 -13 -14 15 0
-9 12 13 14 15 0
-9 12 13 -14 -15 0
-9 12 -13 14 -15 0
-9 12 -13 -14 15 0
-9 -12 13 14 -15 0
-9 -12 13 -14 15 0
-9 -12 -13 14 15 0
-9 -12 -13 -14 -15 0
4 10 12 16 -17 0
4 10 12 -16 17 0
4 10 -12 16 17 0
4 10 -12 -16 -17 0
4 -10 12 16 17 0
4 -10 12 -16 -17 0
4 -10 -12 16 -17 0
4 -10 -12 -16 17 0
-4 10 12 16 17 0
-4 10 12 -16 -17 0
-4 10 -12 16 -17 0
-4 10 -12 -16 17 0
-4 -10 12 16 -17 0
-4 -10 12 -16 17 0
-4 -10 -12 16 17 0
-4 -10 -12 -16 -17 0
1 5 13 18 -19 0
1 5 13 -18 19 0
1 5 -13 18 19 0
1 5 -13 -18 -19 0
1 -5 13 18 19 0
1 -5 13 -18 -19 0
1 -5 -13 18 -19 0
1 -5 -13 -18 19 0
-1 5 13 18 19 0
-1 5 13 -18 -19 0
-1 5 -13 18 -19 0
-1 5 -13 -18 19 0
-1 -5 13 18 -19 0
-1 -5 13 -18 19 0
-1 -5 -13 18 19 0
-1 -5 -13 -18 -19 0
6 16 18 -20 0
6 16 -18 20 0
6 -16 18 20 0
6 -16 -18 -20 0
-6 16 18 20 0
-6 16 -18 -20 0
-6 -16 18 -20 0
-6 -16 -18 20 0
2 7 14 -19 0
2 7 -14 19 0
2 -7 14 19 0
2 -7 -14 -19 0
-2 7 14 19 0
-2 7 -14 -19 0
-2 -7 14 -19 0
-2 -7 -14 19 0
8 11 -17 0
8 -11 17 0
-8 11 17 0
-8 -11 -17 0
15 -20 0
-15 20 0